RT is False
Default write of storage_offers_DA.csv just to have a file (but constraint should be inactive)
Reading model...
...model read.
creating competitive generators file...
...competitive generators recorded.
Loading data...
.. day-ahead data with real-time VRE data read.
Compiling instance...
...instance created.
Creating Offer Mitigation (model will solve as dispatch if TRUE)...
NOTE: storage offers will not be mitigated
...storage offer mitigation file created
Converting model to MPEC...
...converted
NOTE: initial MIP solve with only storage competitive to get feasible solution
Solving...

Welcome to IBM(R) ILOG(R) CPLEX(R) Interactive Optimizer 12.9.0.0
  with Simplex, Mixed Integer & Barrier Optimizers
5725-A06 5725-A29 5724-Y48 5724-Y49 5724-Y54 5724-Y55 5655-Y21
Copyright IBM Corp. 1988, 2019.  All Rights Reserved.

Type 'help' for a list of available commands.
Type 'help' followed by a command name for more
information on commands.

CPLEX> Logfile 'cplex.log' closed.
Logfile 'C:\Users\llavin\Desktop\test826\logs\tmpy6mqt2rj.cplex.log' open.
CPLEX> New value for parallel optimization mode: -1
CPLEX> New value for emphasis for MIP optimization: 1
CPLEX> New value for mixed integer optimality gap tolerance: 0.01
CPLEX> New value for integrality tolerance: 1e-12
CPLEX> New value for deterministic time limit in ticks: 75000
CPLEX> Problem 'C:\Users\llavin\Desktop\test826\logs\tmpjbm2wtlz.pyomo.lp' read.
Read time = 0.23 sec. (13.92 ticks)
CPLEX> Problem name         : C:\Users\llavin\Desktop\test826\logs\tmpjbm2wtlz.pyomo.lp
Objective sense      : Maximize
Variables            :   53809  [Nneg: 1,  Box: 22004,  Free: 4464,
                                 Binary: 27340]
Objective nonzeros   :    8984
Linear constraints   :  123253  [Less: 41346,  Greater: 59096,  Equal: 22811]
  Nonzeros           :  293293
  RHS nonzeros       :   67495

Variables            : Min LB: -5000.000        Max UB: 1000000.       
Objective nonzeros   : Min   : 0.04166667       Max   : 834.6000       
Linear constraints   :
  Nonzeros           : Min   : 0.04166667       Max   : 1000000.       
  RHS nonzeros       : Min   : 0.04166667       Max   : 1000000.       
CPLEX> CPXPARAM_Parallel                                -1
CPXPARAM_Emphasis_MIP                            1
CPXPARAM_DetTimeLimit                            75000
CPXPARAM_MIP_Tolerances_MIPGap                   0.01
CPXPARAM_MIP_Tolerances_Integrality              9.9999999999999998e-13
Tried aggregator 4 times.
MIP Presolve eliminated 88651 rows and 18911 columns.
MIP Presolve added 3404 rows and 0 columns.
MIP Presolve modified 24920 coefficients.
Aggregator did 13010 substitutions.
Reduced MIP has 24996 rows, 21336 columns, and 71320 nonzeros.
Reduced MIP has 8425 binaries, 0 generals, 0 SOSs, and 0 indicators.
Presolve time = 0.33 sec. (193.79 ticks)
Probing fixed 373 vars, tightened 3923 bounds.
Probing time = 0.06 sec. (18.98 ticks)
Tried aggregator 2 times.
MIP Presolve eliminated 843 rows and 748 columns.
MIP Presolve modified 3046 coefficients.
Aggregator did 34 substitutions.
Reduced MIP has 24119 rows, 20554 columns, and 68784 nonzeros.
Reduced MIP has 8051 binaries, 0 generals, 0 SOSs, and 0 indicators.
Presolve time = 0.11 sec. (87.92 ticks)
Probing fixed 0 vars, tightened 308 bounds.
Probing time = 0.13 sec. (23.50 ticks)
Clique table members: 44793.
MIP emphasis: integer feasibility.
MIP search method: dynamic search.
Parallel mode: opportunistic, using up to 32 threads.
Root relaxation solution time = 0.36 sec. (585.01 ticks)

        Nodes                                         Cuts/
   Node  Left     Objective  IInf  Best Integer    Best Bound    ItCnt     Gap

      0     0     1868.3853    70                   1868.3853     4974         
*     0+    0                         1868.3853     1868.3853             0.00%
      0     0        cutoff           1868.3853     1868.3853     4974    0.00%
Elapsed time = 1.66 sec. (1284.73 ticks, tree = 0.01 MB, solutions = 1)

Root node processing (before b&c):
  Real time             =    1.67 sec. (1286.67 ticks)
Parallel b&c, 32 threads:
  Real time             =    0.00 sec. (0.00 ticks)
  Sync time (average)   =    0.00 sec.
  Wait time (average)   =    0.00 sec.
                          ------------
Total (root+branch&cut) =    1.67 sec. (1286.67 ticks)

Solution pool: 1 solution saved.

MIP - Integer optimal solution:  Objective =  1.8683852936e+03
Solution time =    1.69 sec.  Iterations = 4974  Nodes = 0
Deterministic time = 1286.83 ticks  (762.34 ticks/sec)

CPLEX> Incumbent solution written to file 'C:\Users\llavin\Desktop\test826\logs\tmpysqzw51d.cplex.sol'.
CPLEX> NOTE: no warmstart specified for MIP iteration, default behavior is true
NOTE: resolving with all competitive generators using storage-only solution to warmstart
Solving...

Welcome to IBM(R) ILOG(R) CPLEX(R) Interactive Optimizer 12.9.0.0
  with Simplex, Mixed Integer & Barrier Optimizers
5725-A06 5725-A29 5724-Y48 5724-Y49 5724-Y54 5724-Y55 5655-Y21
Copyright IBM Corp. 1988, 2019.  All Rights Reserved.

Type 'help' for a list of available commands.
Type 'help' followed by a command name for more
information on commands.

CPLEX> Logfile 'cplex.log' closed.
Logfile 'C:\Users\llavin\Desktop\test826\logs\tmpa08j5fok.cplex.log' open.
CPLEX> New value for parallel optimization mode: -1
CPLEX> New value for emphasis for MIP optimization: 1
CPLEX> New value for mixed integer optimality gap tolerance: 0.01
CPLEX> New value for integrality tolerance: 1e-12
CPLEX> New value for deterministic time limit in ticks: 75000
CPLEX> Problem 'C:\Users\llavin\Desktop\test826\logs\tmpjnbo3qjo.pyomo.lp' read.
Read time = 0.23 sec. (13.94 ticks)
CPLEX> MIP start file 'C:\Users\llavin\Desktop\test826\logs\tmphn2km2sj.cplex.mst' read.
CPLEX> Problem name         : C:\Users\llavin\Desktop\test826\logs\tmpjnbo3qjo.pyomo.lp
Objective sense      : Maximize
Variables            :   54529  [Nneg: 1,  Box: 22724,  Free: 4464,
                                 Binary: 27340]
Objective nonzeros   :    9680
Linear constraints   :  123253  [Less: 41346,  Greater: 59096,  Equal: 22811]
  Nonzeros           :  293293
  RHS nonzeros       :   67495

Variables            : Min LB: -5000.000        Max UB: 1000000.       
Objective nonzeros   : Min   : 0.04166667       Max   : 786.1083       
Linear constraints   :
  Nonzeros           : Min   : 0.04166667       Max   : 1000000.       
  RHS nonzeros       : Min   : 0.04166667       Max   : 1000000.       
CPLEX> CPXPARAM_Parallel                                -1
CPXPARAM_Emphasis_MIP                            1
CPXPARAM_DetTimeLimit                            75000
CPXPARAM_MIP_Tolerances_MIPGap                   0.01
CPXPARAM_MIP_Tolerances_Integrality              9.9999999999999998e-13
Warning:  No solution found from 1 MIP starts.
Retaining values of one MIP start for possible repair.
Tried aggregator 4 times.
MIP Presolve eliminated 88651 rows and 19631 columns.
MIP Presolve added 3404 rows and 0 columns.
MIP Presolve modified 24920 coefficients.
Aggregator did 13010 substitutions.
Reduced MIP has 24996 rows, 21336 columns, and 71320 nonzeros.
Reduced MIP has 8425 binaries, 0 generals, 0 SOSs, and 0 indicators.
Presolve time = 0.33 sec. (194.20 ticks)
Probing fixed 373 vars, tightened 3923 bounds.
Probing time = 0.06 sec. (18.98 ticks)
Tried aggregator 2 times.
MIP Presolve eliminated 843 rows and 748 columns.
MIP Presolve modified 3046 coefficients.
Aggregator did 34 substitutions.
Reduced MIP has 24119 rows, 20554 columns, and 68784 nonzeros.
Reduced MIP has 8051 binaries, 0 generals, 0 SOSs, and 0 indicators.
Presolve time = 0.11 sec. (87.93 ticks)
Probing fixed 0 vars, tightened 308 bounds.
Probing time = 0.14 sec. (23.50 ticks)
Clique table members: 44793.
MIP emphasis: integer feasibility.
MIP search method: dynamic search.
Parallel mode: opportunistic, using up to 32 threads.
Root relaxation solution time = 0.44 sec. (644.56 ticks)

        Nodes                                         Cuts/
   Node  Left     Objective  IInf  Best Integer    Best Bound    ItCnt     Gap

      0     0   130536.2164   262                 130536.2164     5822         
      0     0   126889.0978   205                   Cuts: 112     6029         
      0     0   125706.2423   205                   Cuts: 112     6143         
      0     0   125706.2423   205                   Covers: 1     6144         
Repair heuristic found nothing.
      0     4   122083.6753   192                     Cuts: 9     6171         
Elapsed time = 4.34 sec. (1835.32 ticks, tree = 0.02 MB, solutions = 0)
    561   383   100778.8804   152                 121109.4474    11599         
   1074   711    69565.7064    98                 121109.4474    17480         
   1827   983    -8548.8641    96                 121109.4474    23498         
   2515  1349   -12764.1130    52                 121109.4474    27904         
   3234  1849    infeasible                       120669.2560    40678         
*  3595+ 2113                         1868.3853   120669.2560              --- 
   3893  1944    -8961.3106    76     1868.3853   120669.2560    43611     --- 
   4450  1613    25786.2125    79     1868.3853   120669.2560    54702     --- 
   5015  1679        cutoff           1868.3853   120669.2560    69303     --- 
   5553  2194    11864.7427    76     1868.3853   120669.2560    96059     --- 
   7744  2705    16023.7407    57     1868.3853   101506.4514   160275     --- 
Elapsed time = 20.58 sec. (4941.22 ticks, tree = 18.00 MB, solutions = 1)
*  8301+ 1853                         1868.3853    35516.9859              --- 
   8301  1870    infeasible           1868.3853    34066.3313   184684     --- 
   9205     6     4147.2370    43     1868.3853     4147.2370   191173  121.97%

GUB cover cuts applied:  1
Cover cuts applied:  7
Implied bound cuts applied:  22
Flow cuts applied:  115
Mixed integer rounding cuts applied:  4
Gomory fractional cuts applied:  3

Root node processing (before b&c):
  Real time             =    2.58 sec. (1791.89 ticks)
Parallel b&c, 32 threads:
  Real time             =   27.05 sec. (6902.32 ticks)
  Sync time (average)   =    2.70 sec.
  Wait time (average)   =    0.23 sec.
                          ------------
Total (root+branch&cut) =   29.63 sec. (8694.21 ticks)

Solution pool: 2 solutions saved.

MIP - Integer optimal solution:  Objective =  1.8683853023e+03
Solution time =   29.67 sec.  Iterations = 191305  Nodes = 9207
Deterministic time = 8694.36 ticks  (293.02 ticks/sec)

CPLEX> Incumbent solution written to file 'C:\Users\llavin\Desktop\test826\logs\tmpgjx7mtc8.cplex.sol'.
CPLEX> Exporting results... 
